NAME : mEgtspf.pid4481.gtsp.241592049.tour
COMMENT : Length = 241592049
COMMENT : Found by LKH [Keld Helsgaun] Sun Mar  9 12:43:03 2025
TYPE : TOUR
DIMENSION : 135
TOUR_SECTION
1
128
129
130
131
95
92
93
94
124
125
126
127
3
53
54
55
52
14
85
86
87
84
82
83
80
81
13
120
121
122
123
35
32
33
34
10
51
48
49
50
106
107
104
105
75
72
73
74
2
42
43
40
41
67
64
65
66
5
71
68
69
70
6
77
78
79
76
15
17
18
19
16
11
115
112
113
114
91
88
89
90
97
98
99
96
21
22
23
20
58
59
56
57
102
103
100
101
9
60
61
62
63
119
116
117
118
12
4
8
29
30
31
28
109
110
111
108
25
26
27
24
132
133
134
135
7
37
38
39
36
45
46
47
44
-1
EOF
